55
2 22 37 
2 82 46 
2 109 10 
2 31 79 
1 52 
2 1 28 
2 58 103 
2 19 66 
2 25 55 
2 7 70 
2 16 91 
2 100 13 
2 34 106 
2 43 87 
2 94 73 
2 88 117 
2 118 97 
2 64 85 
3 112 96 116 
3 51 93 119 
3 76 39 98 
3 61 29 104 
3 4 63 48 
3 42 23 40 
3 49 77 47 
3 67 6 84 
3 115 99 80 
1 69 
3 90 75 15 
3 78 120 114 
1 18 
3 14 108 36 
3 68 45 20 
3 27 57 60 
2 72 21 
1 9 
1 113 
3 102 105 24 
3 101 5 86 
3 3 2 50 
1 81 
3 65 54 44 
1 41 
2 95 56 
3 35 12 62 
3 30 74 107 
2 33 89 
2 111 32 
1 8 
1 53 
1 110 
3 71 11 92 
1 59 
2 38 26 
2 83 17 
